n_nurses =  30;
sched_period =  28;
n_shifts =  3;
nurses_coverage = array2d(period, shifts, [
4, 15, 0,
16, 4, 0,
4, 15, 0,
0, 4, 17,
4, 15, 0,
3, 13, 0,
4, 15, 0,
3, 14, 0,
0, 4, 17,
4, 17, 0,
0, 0, 0,
14, 1, 3,
0, 0, 0,
0, 0, 0,
0, 0, 0,
0, 0, 0,
0, 0, 0,
0, 0, 0,
16, 4, 0,
0, 0, 0,
0, 0, 0,
3, 5, 0,
0, 0, 0,
0, 0, 0,
18, 0, 4,
0, 0, 0,
0, 14, 4,
12, 2, 1]);
